; benchmark generated from python API
(set-info :status unknown)
(declare-fun S_1 () Real)
(declare-fun S_2 () Real)
(declare-fun C () Real)
(declare-fun A_0 () Real)
(declare-fun L_0 () Real)
(declare-fun S_0 () Real)
(declare-fun S_3 () Real)
(declare-fun S_4 () Real)
(declare-fun L0 () Real)
(declare-fun B () Real)
(declare-fun A_4 () Real)
(declare-fun A_3 () Real)
(declare-fun L_1 () Real)
(declare-fun A_2 () Real)
(declare-fun A_1 () Real)
(declare-fun L_2 () Real)
(assert
 (let (($x37 (>= L0 0.0)))
 (let (($x542 (>= C 5.0)))
 (let (($x485 (>= B 5.0)))
 (let ((?x494 (* (- 1.0) A_4)))
 (let ((?x291 (* (- 1.0) S_1)))
 (let ((?x536 (* (- 1.0) B)))
 (let ((?x1881 (* (- 3.0) C)))
 (let (($x9359 (<= S_4 (+ A_4 (* (- 1.0) A_3) A_2 (* (- 1.0) L_1) C B))))
 (let (($x9713 (<= (+ (* (- 4.0) C) ?x536 (* (- 1.0) S_0) A_3 ?x494 S_4) 0.0)))
 (let (($x9708 (<= (+ L_0 ?x536 A_3 (* (- 2.0) C) (* (- 1.0) A_1) ?x494 S_4) 0.0)))
 (let (($x9744 (<= (+ (* (- 2.0) C) ?x536 A_3 (* (- 1.0) S_2) ?x494 S_4) 0.0)))
 (let ((?x389 (* (- 1.0) L_1)))
 (let ((?x9320 (+ A_2 ?x389 C)))
 (let (($x9321 (>= S_4 ?x9320)))
 (let (($x9292 (<= (+ (* 3.0 C) S_0 (* (- 1.0) S_4)) 0.0)))
 (let (($x2300 (>= S_4 (+ A_3 ?x389))))
 (let (($x12220 (or $x2300 (not (<= (+ A_2 (* (- 1.0) A_1) (* (- 1.0) C)) 0.0)) $x9292 $x9321)))
 (let ((?x477 (* (- 1.0) L_2)))
 (let ((?x811 (+ A_3 ?x477)))
 (let (($x841 (>= S_4 ?x811)))
 (let (($x9371 (or $x841 $x9321 (<= (+ (* 2.0 C) S_1 (* (- 1.0) S_4)) 0.0))))
 (let (($x9623 (<= (+ (* (- 1.0) L_0) (* 2.0 C) A_1 (* (- 1.0) S_4)) 0.0)))
 (let (($x8985 (<= (+ A_2 (* (- 1.0) A_1) (* (- 1.0) C)) 0.0)))
 (let (($x11891 (or (<= (+ A_1 (* (- 1.0) L_0) (* (- 1.0) S_2)) 0.0) (<= (+ C S_0 (* (- 1.0) S_2)) 0.0))))
 (let (($x4252 (= L_2 L_0)))
 (let (($x270 (not (= L_0 L_1))))
 (let (($x12041 (or $x270 $x4252 (<= (+ A_1 (* (- 1.0) L_0) L_2 (* (- 1.0) A_2) C) 0.0))))
 (let (($x9385 (= (+ (* (- 1.0) C) A_2 ?x477 ?x536 (* (- 1.0) A_1) L_0) 0.0)))
 (let ((?x323 (* (- 1.0) C)))
 (let ((?x8747 (+ ?x536 ?x477 A_2 ?x323)))
 (let (($x8742 (<= (+ A_1 (* (- 1.0) L_0)) ?x8747)))
 (let (($x64 (= L_2 L_1)))
 (let (($x54 (= L_1 L_0)))
 (let (($x11907 (or $x54 (<= S_4 (+ A_4 (* (- 1.0) A_3) A_1 ?x389 (* 2.0 C))))))
 (let (($x9283 (<= A_2 (+ A_1 ?x536 C))))
 (let (($x36 (>= L_0 L0)))
 (let (($x111 (>= S_1 S_0)))
 (let (($x114 (>= S_2 S_1)))
 (let (($x120 (>= S_4 S_3)))
 (let (($x122 (>= A_1 A_0)))
 (let (($x123 (>= A_2 A_1)))
 (let (($x125 (>= A_4 A_3)))
 (and (<= (+ A_2 ?x477) S_3) $x125 $x123 $x122 $x120 $x114 $x111 $x36 (or $x64 (<= S_2 (+ A_2 ?x477 ?x536))) (>= S_2 (+ A_1 ?x389 ?x536)) (not (<= ?x811 S_3)) (or $x54 (<= S_1 (+ A_1 ?x389 ?x536))) (or $x54 $x64 (= (+ A_2 ?x477) (+ A_1 ?x389 C))) (<= S_4 (+ A_3 ?x477 C)) (<= (+ ?x536 ?x389 A_1 ?x323) (+ A_0 (* (- 1.0) L_0))) (>= S_1 (+ ?x536 ?x389 A_1 ?x323)) (>= S_0 (+ ?x536 ?x389 A_1 (* (- 2.0) C))) (or $x64 (not (<= L_2 L_1))) (or $x54 (not (<= L_1 L_0))) (or $x54 (<= S_0 (+ ?x536 ?x389 A_1 ?x323))) (or $x841 (>= S_4 (+ A_2 ?x477 ?x536 C))) (or $x64 (<= S_1 ?x8747)) (or $x64 (<= S_3 (+ A_2 ?x477 ?x536 C))) (>= S_2 ?x8747) (or (not (= L_1 L_2)) (>= S_0 (+ ?x536 ?x389 A_2 ?x1881))) (or $x54 (not (= L_1 L_2)) $x8985) (or $x54 (<= S_2 (+ A_1 ?x389 ?x536 C))) (or $x54 (<= S_4 (+ A_1 ?x389 ?x536 (* 3.0 C)))) (or $x54 (<= S_3 (+ A_1 ?x389 ?x536 (* 2.0 C)))) (<= (+ L_0 ?x1881 S_3 (* (- 1.0) A_0)) 0.0) (<= S_4 (+ A_4 ?x477)) (or $x64 (<= S_4 (+ A_4 (* (- 1.0) A_3) A_2 ?x477 C))) (or $x64 (<= S_4 (+ A_2 ?x477 ?x536 (* 2.0 C)))) (>= S_1 (+ ?x536 ?x477 A_2 (* (- 2.0) C))) (<= (+ (* (- 4.0) C) ?x291 S_4) 0.0) (<= S_2 (+ A_2 ?x389)) (or $x841 $x9283 (>= S_4 (+ A_1 ?x389 ?x536 (* 2.0 C)))) (or $x2300 (not $x9283) $x9321) $x11907 (<= (+ ?x536 ?x477 A_2 (* (- 2.0) C)) (+ A_0 (* (- 1.0) L_0))) (or $x64 (<= S_0 (+ ?x536 ?x477 A_2 (* (- 2.0) C))) $x8742) (or (not $x8742) $x9385) (<= S_3 ?x9320) (<= S_4 (+ A_2 ?x389 (* 2.0 C))) (or $x841 (<= (+ C S_2 (* (- 1.0) S_4)) 0.0)) (<= (+ L_0 ?x323 S_1 (* (- 1.0) A_0)) 0.0) (<= (+ (* (- 2.0) C) (* (- 1.0) S_0) S_1) 0.0) (>= S_0 (+ ?x536 ?x477 A_2 ?x1881)) $x12041 (<= (+ L_0 (* (- 4.0) C) S_4 (* (- 1.0) A_0)) 0.0) (<= (+ (* (- 1.0) A_1) L_0 S_1) 0.0) (<= (+ L_0 (* (- 2.0) C) (* (- 1.0) A_1) S_3) 0.0) (<= (+ L_0 ?x323 (* (- 1.0) A_1) S_2) 0.0) (<= (+ L_0 ?x1881 (* (- 1.0) A_1) S_4) 0.0) $x11891 (or $x841 $x8985 $x9292 $x9623) $x9371 $x12220 $x9744 $x9708 $x9713 $x9359 (<= (+ L_0 ?x1881 ?x536 A_3 ?x494 S_4 (* (- 1.0) A_0)) 0.0) (<= (+ ?x1881 ?x536 A_3 ?x291 ?x494 S_4) 0.0) $x485 $x542 $x37 (<= (+ ?x1881 S_3 ?x291) 0.0) (<= (+ (* (- 4.0) C) (* (- 1.0) S_0) S_3) 0.0) (<= (+ ?x1881 (* (- 1.0) S_2) S_4) 0.0) (<= (+ (* (- 5.0) C) (* (- 1.0) S_0) S_4) 0.0) (<= (+ L_0 S_0 (* (- 1.0) A_0)) 0.0) (<= (+ (* (- 2.0) C) S_3 (* (- 1.0) S_2)) 0.0) (<= (+ ?x1881 (* (- 1.0) S_0) S_2) 0.0) (<= (+ L_0 (* (- 2.0) C) S_2 (* (- 1.0) A_0)) 0.0) (<= (+ (* (- 2.0) C) S_2 ?x291) 0.0)))))))))))))))))))))))))))))))))))))))))))))
(check-sat)
